results/res_prop_muc/res_Cimatti_mathsat_cores/QF_UF/NEQ041_size6.smt.smt2.out

real	0m0.600s
user	0m0.524s
sys	0m0.041s
