results/res_prop_muc/res_Cimatti_mathsat_cores/QF_UF/NEQ041_size6.smt.smt2.res
unsat
( _c0
  _c1
  _c116
  _c15
  _c159
  _c202
  _c22
  _c245
  _c288
  _c289
  _c29
  _c296
  _c303
  _c310
  _c317
  _c324
  _c325
  _c326
  _c327
  _c328
  _c329
  _c330
  _c331
  _c332
  _c333
  _c334
  _c335
  _c336
  _c337
  _c338
  _c339
  _c340
  _c341
  _c342
  _c343
  _c344
  _c345
  _c346
  _c347
  _c348
  _c349
  _c350
  _c351
  _c352
  _c353
  _c354
  _c355
  _c356
  _c357
  _c358
  _c359
  _c36
  _c360
  _c361
  _c368
  _c37
  _c375
  _c382
  _c389
  _c396
  _c397
  _c404
  _c411
  _c418
  _c425
  _c432
  _c433
  _c44
  _c440
  _c447
  _c454
  _c461
  _c468
  _c469
  _c470
  _c471
  _c472
  _c473
  _c474
  _c475
  _c476
  _c477
  _c478
  _c479
  _c480
  _c481
  _c482
  _c483
  _c484
  _c485
  _c486
  _c487
  _c488
  _c489
  _c490
  _c491
  _c492
  _c493
  _c494
  _c495
  _c51
  _c58
  _c65
  _c72
  _c73
  _c8 )
